NAME : swiss42-R-3-2-b.0329_2253.tour
COMMENT : Found by CTSP-d POMO Model Sun Mar 29 22:53:14 2026
TYPE : TOUR
DIMENSION : 42
TOUR_SECTION
1
8
2
7
20
14
19
13
12
26
42
24
9
10
41
22
25
40
23
39
34
35
21
36
37
32
18
38
16
17
15
6
27
4
5
3
28
29
33
31
30
11
-1
EOF
